1640635
8 15 6874
15 58 6904
58 9 1777
9 17 5356
17 27 1445
27 45 8214
45 2 15587
2 48 7938
48 4 7248
4 20 4440
20 65 13332
65 13 18316
13 54 13536
54 1 18207
1 47 14424
47 24 15612
24 61 5437
61 3 12947
3 42 13084
42 12 4831
12 32 4813
32 56 1427
56 40 3489
40 5 3130
5 19 15574
19 49 8895
49 23 4353
23 60 7498
60 29 6419
29 25 9940
25 30 1249
30 41 5056
41 6 10602
6 64 32039
64 67 14572
67 38 15200
38 7 28523
7 11 50738
11 66 13370
66 26 57991
26 55 61621
55 34 20835
34 46 36286
46 43 69394
43 33 207640
33 57 88918
57 18 27906
18 10 28652
10 44 75759
44 14 62420
14 52 39276
52 22 46274
22 31 39447
31 21 77515
21 63 32196
63 16 14689
16 59 10880
59 36 8563
36 28 23031
28 50 10810
50 53 48925
53 37 6554
37 62 30446
62 39 8740
39 51 11004
51 35 8926
35 68 19070
68 8 34471
